db/data/313121570121970325272660580692475824826.z3.out
-------------------
2500.082171675
